
437
750
   600      3
   599      1
   598      1
   597      2
   596      3
   595      5
   594      2
   593      4
   592      2
   590      1
   589      3
   588      1
   587      6
   586      2
   585      2
   584      3
   583      3
   582      1
   581      3
   580      5
   579      1
   578      1
   577      4
   576      4
   575      1
   574      3
   573      3
   571      2
   569      2
   568      1
   567      2
   566      1
   565      1
   564      2
   563      2
   562      2
   561      3
   560      3
   559      5
   558      1
   557      2
   556      4
   555      5
   554      2
   553      4
   552      1
   551      2
   550      3
   549      1
   548      1
   546      3
   545      2
   544      2
   542      4
   541      3
   539      3
   538      4
   537      1
   536      2
   535      2
   534      1
   533      2
   529      1
   528      2
   527      1
   526      2
   524      4
   523      2
   520      3
   519      1
   518      2
   517      5
   516      2
   515      3
   514      1
   513      1
   512      3
   511      4
   510      2
   509      1
   507      5
   506      1
   505      2
   504      2
   503      4
   502      2
   499      1
   498      3
   497      2
   496      4
   495      1
   493      3
   491      2
   490      1
   488      1
   487      2
   486      3
   485      3
   484      3
   483      2
   482      3
   481      2
   480      2
   479      1
   478      1
   477      2
   476      3
   475      4
   472      1
   471      2
   469      3
   468      2
   467      1
   466      2
   465      1
   464      1
   463      2
   462      1
   461      5
   459      3
   458      1
   457      2
   456      1
   455      3
   454      1
   453      1
   452      3
   451      2
   449      1
   448      4
   446      2
   445      1
   444      1
   443      2
   442      5
   441      1
   440      2
   439      1
   438      1
   437      2
   435      4
   434      3
   433      2
   432      2
   431      2
   429      1
   428      3
   427      2
   426      1
   424      2
   423      1
   422      2
   421      1
   420      4
   418      2
   417      3
   416      2
   415      2
   414      2
   413      1
   412      3
   411      3
   410      3
   408      2
   407      3
   406      2
   405      1
   404      4
   403      4
   402      2
   400      2
   399      3
   398      2
   397      2
   396      2
   395      5
   394      5
   393      3
   392      2
   391      2
   390      1
   389      3
   388      1
   387      2
   386      1
   385      3
   384      1
   383      1
   382      1
   381      1
   380      1
   379      3
   378      1
   377      2
   375      3
   373      2
   372      3
   371      3
   370      3
   369      2
   368      5
   367      2
   366      2
   364      2
   362      2
   361      1
   360      2
   359      2
   358      2
   357      2
   355      1
   354      1
   353      1
   352      4
   350      3
   349      2
   348      6
   347      1
   346      4
   345      1
   344      1
   343      1
   341      2
   338      2
   337      2
   335      1
   334      2
   333      4
   332      1
   331      5
   329      1
   328      2
   327      3
   325      3
   324      1
   323      2
   322      1
   321      2
   320      4
   319      1
   318      1
   317      1
   316      1
   315      2
   314      2
   311      2
   309      1
   308      1
   307      2
   306      2
   305      2
   304      1
   302      1
   300      2
   299      6
   298      3
   297      2
   296      4
   295      3
   294      2
   292      1
   291      2
   290      2
   289      1
   288      2
   287      1
   286      3
   285      3
   282      1
   281      3
   280      1
   279      2
   278      3
   277      1
   276      1
   275      5
   273      3
   271      1
   270      5
   269      3
   268      3
   267      1
   265      1
   264      2
   263      4
   262      3
   261      1
   260      3
   259      1
   258      3
   257      4
   256      1
   255      2
   254      5
   253      1
   252      3
   251      1
   250      2
   249      3
   248      2
   246      5
   245      3
   244      1
   243      3
   242      2
   240      2
   239      5
   237      2
   236      5
   235      1
   234      1
   233      5
   232      2
   231      2
   230      4
   229      4
   228      3
   227      1
   226      3
   225      1
   224      3
   223      5
   221      1
   220      1
   219      4
   218      3
   217      3
   215      3
   213      7
   212      1
   211      2
   210      2
   208      1
   207      3
   206      2
   205      1
   204      6
   203      1
   202      1
   201      1
   200      1
   199      3
   198      3
   196      2
   195      2
   194      3
   193      4
   191      5
   189      1
   188      4
   187      1
   186      3
   185      3
   184      1
   182      3
   181      1
   180      2
   179      4
   178      3
   177      1
   176      4
   175      4
   174      3
   172      1
   171      1
   167      1
   166      3
   165      1
   164      1
   161      2
   160      3
   159      2
   158      5
   157      2
   156      3
   154      3
   153      3
   152      1
   149      4
   147      1
   145      1
   144      3
   143      3
   141      1
   138      5
   137      1
   136      2
   134      4
   132      1
   131      4
   130      3
   129      1
   128      1
   127      1
   126      1
   125      4
   122      2
   121      1
   120      5
   119      4
   118      2
   116      2
   115      2
   113      2
   112      3
   111      2
   110      6
   109      2
   108      2
   107      3
   106      1
   105      1
   104      1
   103      2
   102      1
   101      4
    98      3
    97      2
    96      2
    95      2
    94      1
    93      3
    92      1
    91      2
    90      1
    89      1
    88      2
    85      1
    84      3
    82      1
    81      3
    80      2
    79      2
    78      3
    77      1
    76      4
    75      2




The initial LP solution: time=1.81


File: BPP_1000_750_0.1_0.8_7.txt  Instance No. 1
Wed Feb 25 13:57:11 2015

LP solution: lpval=455.9145527369826 lpbnd=456

1: 0:1 378:1 obj 1\\
1: 2:1 377:1 obj 1\\
1: 3:1 376:1 obj 1\\
3: 4:1 375:1 obj 1\\
2: 5:1 376:1 obj 1\\
2: 6:1 374:1 obj 1\\
2: 7:1 373:1 obj 1\\
1: 7:1 374:1 obj 1\\
0.2500000000000004: 8:1 372:1 obj 1\\
0.2500000000000003: 9:1 370:1 obj 1\\
1: 10:1 369:1 obj 1\\
2: 10:1 370:1 obj 1\\
4: 12:1 372:1 obj 1\\
1: 13:1 368:1 obj 1\\
1: 14:1 367:1 obj 1\\
3: 15:1 366:1 obj 1\\
1: 16:1 365:1 obj 1\\
0.8749999999999998: 17:1 428:2 obj 1\\
0.3200749147010824: 18:1 423:1 433:1 obj 1\\
1: 19:1 422:1 433:1 obj 1\\
1: 20:1 364:1 obj 1\\
1: 21:1 363:1 obj 1\\
0.2850374573505416: 22:1 421:1 431:1 obj 1\\
3: 23:1 362:1 obj 1\\
1: 24:1 361:1 obj 1\\
3: 25:1 360:1 obj 1\\
1: 26:1 359:1 obj 1\\
1: 26:1 361:1 obj 1\\
2: 27:1 357:1 obj 1\\
1: 28:1 355:1 obj 1\\
1: 29:1 354:1 obj 1\\
1: 30:1 356:1 obj 1\\
1: 31:1 353:1 obj 1\\
1: 32:1 352:1 obj 1\\
1: 33:1 351:1 obj 1\\
1: 34:1 350:1 obj 1\\
2: 35:1 349:1 obj 1\\
1: 36:1 354:1 obj 1\\
5: 38:1 347:1 obj 1\\
0.2850374573505416: 39:1 406:1 429:1 obj 1\\
2: 40:1 346:1 obj 1\\
2: 41:1 345:1 obj 1\\
2: 42:1 344:1 obj 1\\
2: 43:1 343:1 obj 1\\
1: 45:1 342:1 obj 1\\
1: 46:1 341:1 obj 1\\
1: 47:1 340:1 obj 1\\
2: 47:1 341:1 obj 1\\
1: 48:1 339:1 obj 1\\
1: 49:1 338:1 obj 1\\
3: 50:1 336:1 obj 1\\
1: 51:1 335:1 obj 1\\
1: 51:1 336:1 obj 1\\
2: 52:1 334:1 obj 1\\
1: 53:1 332:1 obj 1\\
3: 53:1 333:1 obj 1\\
2: 55:1 330:1 obj 1\\
1: 55:1 331:1 obj 1\\
1: 56:1 329:1 obj 1\\
1: 57:1 328:1 obj 1\\
2: 58:1 328:1 obj 1\\
2: 59:1 327:1 obj 1\\
1: 60:1 327:1 obj 1\\
2: 61:1 326:1 obj 1\\
1: 62:1 322:1 obj 1\\
1: 63:1 323:1 obj 1\\
1: 63:1 324:1 obj 1\\
1: 64:1 321:1 obj 1\\
2: 65:1 320:1 obj 1\\
3: 66:1 318:1 obj 1\\
1: 67:1 317:1 obj 1\\
3: 68:1 314:1 obj 1\\
1: 69:1 313:1 obj 1\\
1.829105473965287: 70:1 312:1 obj 1\\
4.829105473965287: 71:1 311:1 obj 1\\
1: 72:1 310:1 obj 1\\
1: 72:1 313:1 obj 1\\
1: 73:1 309:1 obj 1\\
1: 74:1 308:1 obj 1\\
1: 75:1 307:1 obj 1\\
4: 77:1 306:1 obj 1\\
2: 78:1 305:1 obj 1\\
3: 80:1 303:1 obj 1\\
1: 81:1 302:1 obj 1\\
2: 82:1 301:1 obj 1\\
1: 83:1 300:1 obj 1\\
2: 85:1 299:1 obj 1\\
1: 86:1 296:1 obj 1\\
3: 87:1 295:1 obj 1\\
1: 88:1 294:1 obj 1\\
1: 88:1 297:1 obj 1\\
4: 89:1 293:1 obj 1\\
1: 90:1 292:1 obj 1\\
3: 91:1 290:1 obj 1\\
1: 92:1 288:1 obj 1\\
1: 92:1 289:1 obj 1\\
1: 93:1 287:1 obj 1\\
1: 94:1 285:1 obj 1\\
2: 95:1 284:1 obj 1\\
1: 96:1 283:1 obj 1\\
2: 96:1 284:1 obj 1\\
1: 97:1 282:1 obj 1\\
2: 97:1 285:1 obj 1\\
1: 98:1 286:1 obj 1\\
1: 99:1 281:1 obj 1\\
3: 100:1 280:1 obj 1\\
2: 101:1 279:1 obj 1\\
2: 102:1 278:1 obj 1\\
1: 103:1 277:1 obj 1\\
1: 104:1 278:1 obj 1\\
4: 107:1 275:1 obj 1\\
1: 108:1 272:1 obj 1\\
2: 109:1 271:1 obj 1\\
3: 110:1 269:1 obj 1\\
1: 112:1 270:1 obj 1\\
1: 114:1 267:1 obj 1\\
1: 115:1 266:1 obj 1\\
1: 116:1 265:1 obj 1\\
1: 117:1 264:1 obj 1\\
1: 118:1 263:1 obj 1\\
1: 118:1 266:1 obj 1\\
2: 119:1 261:1 obj 1\\
1: 120:1 260:1 obj 1\\
1: 121:1 262:1 obj 1\\
1: 122:1 259:1 obj 1\\
3: 123:1 258:1 obj 1\\
1: 124:1 257:1 obj 1\\
1: 125:1 256:1 obj 1\\
3: 126:1 255:1 obj 1\\
2: 127:1 254:1 obj 1\\
1: 128:1 253:1 obj 1\\
3: 129:1 254:1 obj 1\\
1: 130:1 251:1 obj 1\\
1: 131:1 250:1 obj 1\\
2: 133:1 248:1 obj 1\\
1: 134:1 247:1 obj 1\\
2: 134:1 249:1 obj 1\\
1: 135:1 246:1 obj 1\\
1: 137:1 245:1 obj 1\\
1: 138:1 245:1 obj 1\\
2: 140:1 243:1 obj 1\\
2: 140:1 244:1 obj 1\\
1: 141:1 242:1 obj 1\\
1: 142:1 241:1 obj 1\\
0.6249999999999998: 142:1 342:1 399:1 obj 1\\
1: 143:1 240:1 obj 1\\
1: 144:1 239:1 obj 1\\
1: 145:1 237:1 obj 1\\
1: 146:1 236:1 obj 1\\
2: 147:1 235:1 obj 1\\
1: 148:1 234:1 obj 1\\
2: 149:1 233:1 obj 1\\
0.5253671562082776: 150:1 232:1 obj 1\\
2: 151:1 231:1 obj 1\\
1: 152:1 230:1 obj 1\\
2.474632843791722: 153:1 232:1 obj 1\\
1: 154:1 228:1 obj 1\\
3: 155:1 227:1 obj 1\\
2: 156:1 226:1 obj 1\\
1: 157:1 225:1 obj 1\\
2: 158:1 229:1 obj 1\\
1: 159:1 224:1 obj 1\\
2: 160:1 223:1 obj 1\\
1: 160:1 224:1 obj 1\\
0.4597055333036644: 162:1 315:1 405:1 obj 1\\
2: 163:1 222:1 obj 1\\
1: 164:1 221:1 obj 1\\
1: 165:1 220:1 obj 1\\
1: 166:1 219:1 obj 1\\
4: 167:1 218:1 obj 1\\
1: 168:1 217:1 obj 1\\
2: 169:1 216:1 obj 1\\
2: 170:1 214:1 obj 1\\
1: 171:1 214:1 obj 1\\
2: 171:1 215:1 obj 1\\
2: 172:1 213:1 obj 1\\
1: 173:1 212:1 obj 1\\
1: 174:1 211:1 obj 1\\
1: 175:1 210:1 obj 1\\
0.8481308411214952: 175:1 213:1 obj 1\\
1.690346387776295: 175:1 308:1 399:1 obj 1\\
2: 177:1 209:1 obj 1\\
2: 178:1 208:1 obj 1\\
2: 179:1 207:1 obj 1\\
1: 180:1 206:1 obj 1\\
1: 181:1 205:1 obj 1\\
1: 181:1 206:1 obj 1\\
1: 182:1 204:1 obj 1\\
1: 183:1 204:1 obj 1\\
1: 184:1 203:1 obj 1\\
1: 185:1 203:1 obj 1\\
1: 186:1 202:1 obj 1\\
1: 187:1 201:1 obj 1\\
1: 188:1 200:1 obj 1\\
1: 189:1 199:1 obj 1\\
1: 190:1 198:1 obj 1\\
3: 191:1 197:1 obj 1\\
1: 192:1 196:1 obj 1\\
2: 193:1 195:1 obj 1\\
0.5: 194:2 obj 1\\
0.6876298026998959: 198:1 289:1 396:1 obj 1\\
0.2210632695445783: 199:1 291:1 395:1 obj 1\\
0.7499999999999997: 13:1 370:1 obj 1\\
1: 1:1 381:1 obj 1\\
0.7499999999999997: 9:1 372:1 obj 1\\
1: 11:1 369:1 obj 1\\
2: 12:1 371:1 obj 1\\
2: 105:1 278:1 obj 1\\
1: 154:1 229:1 obj 1\\
1.75: 8:1 382:1 obj 1\\
1: 26:1 360:1 obj 1\\
0.1708945260347132: 70:1 314:1 obj 1\\
2: 76:1 308:1 obj 1\\
1: 34:1 352:1 obj 1\\
2: 37:1 349:1 obj 1\\
2: 54:1 336:1 obj 1\\
4: 84:1 300:1 obj 1\\
1: 118:1 264:1 obj 1\\
2: 118:1 267:1 obj 1\\
0.4746328437917224: 150:1 233:1 obj 1\\
1.542640186915888: 162:1 316:1 404:1 obj 1\\
0.8481308411214952: 173:1 216:1 obj 1\\
1.5: 22:1 416:1 436:1 obj 1\\
0.7149625426494584: 22:1 419:1 433:1 obj 1\\
1: 42:1 345:1 obj 1\\
1: 56:1 331:1 obj 1\\
1: 116:1 266:1 obj 1\\
1: 121:1 361:1 400:1 obj 1\\
0.6851820946447114: 153:1 324:1 405:1 obj 1\\
0.4100374573505416: 19:1 420:1 435:1 obj 1\\
1.5: 22:1 417:1 435:1 obj 1\\
1: 46:1 342:1 obj 1\\
1: 76:1 307:1 obj 1\\
2: 80:1 304:1 obj 1\\
2: 111:1 272:1 obj 1\\
1: 119:1 262:1 obj 1\\
1: 130:1 252:1 obj 1\\
1: 146:1 238:1 obj 1\\
1: 0:1 380:1 obj 1\\
1: 3:1 379:1 obj 1\\
3: 5:1 378:1 obj 1\\
1: 7:1 381:1 obj 1\\
1.554925085298917: 18:1 426:1 430:1 obj 1\\
1: 19:1 421:1 434:1 obj 1\\
1: 37:1 348:1 obj 1\\
2: 41:1 346:1 obj 1\\
0.5: 42:1 416:1 417:1 obj 1\\
1: 98:1 283:1 obj 1\\
3: 106:1 276:1 obj 1\\
1: 132:1 250:1 obj 1\\
1: 157:1 227:1 obj 1\\
0.03503745735054076: 18:1 425:1 431:1 obj 1\\
0.5: 19:1 419:1 436:1 obj 1\\
1: 33:1 352:1 obj 1\\
2: 36:1 351:1 obj 1\\
2: 44:1 415:1 418:1 obj 1\\
1.375: 56:1 407:1 413:1 obj 1\\
0.1708945260347132: 71:1 312:1 obj 1\\
1: 79:1 306:1 obj 1\\
1: 83:1 301:1 obj 1\\
1: 113:1 268:1 obj 1\\
1: 139:1 337:1 406:1 obj 1\\
1.095720219551995: 141:1 358:1 384:1 obj 1\\
1: 144:1 328:1 410:1 obj 1\\
0.8481308411214952: 200:1 275:1 409:1 obj 1\\
1: 216:1 259:1 408:1 obj 1\\
1: 0:1 381:1 obj 1\\
0.3200749147010824: 16:1 426:1 432:1 obj 1\\
1.679925085298918: 19:1 423:1 432:1 obj 1\\
1: 23:1 416:1 435:1 obj 1\\
1: 28:1 356:1 obj 1\\
0.2149625426494584: 56:1 406:1 414:1 obj 1\\
0.1708945260347137: 73:1 311:1 obj 1\\
0.8435784750037081: 73:1 398:1 402:1 obj 1\\
1.904279780448005: 134:1 358:1 390:1 obj 1\\
1.024514167037532: 161:1 321:1 401:1 obj 1\\
0.2500000000000003: 176:1 328:1 382:1 obj 1\\
2: 194:1 196:1 obj 1\\
0.4014055778074467: 199:1 297:1 389:1 obj 1\\
0.6855622311229788: 200:1 292:1 393:1 obj 1\\
1: 14:1 428:1 430:1 obj 1\\
1.089962542649459: 18:1 421:1 435:1 obj 1\\
0.4100374573505414: 19:1 424:1 431:1 obj 1\\
1: 30:1 354:1 obj 1\\
0.625: 42:1 402:1 431:1 obj 1\\
1: 54:1 408:1 415:1 obj 1\\
1: 66:1 320:1 obj 1\\
0.4408192404687734: 98:1 384:1 392:1 obj 1\\
1: 113:1 382:1 383:1 obj 1\\
1: 129:1 253:1 obj 1\\
1: 146:1 237:1 obj 1\\
1.457359813084112: 168:1 316:1 399:1 obj 1\\
0.4746328437917227: 168:1 325:1 391:1 obj 1\\
1: 174:1 213:1 obj 1\\
1: 175:1 324:1 386:1 obj 1\\
1.249536418928942: 176:1 298:1 409:1 obj 1\\
2.337894971072541: 176:1 325:1 384:1 obj 1\\
0.6249999999999998: 185:1 291:1 407:1 obj 1\\
1.310098650051921: 198:1 287:1 398:1 obj 1\\
0.7486927013796172: 200:1 279:1 403:1 obj 1\\
1: 200:1 290:1 395:1 obj 1\\
0.2626835781041386: 238:2 406:1 obj 1\\
0.9649625426494592: 16:1 425:1 433:1 obj 1\\
0.4450749147010826: 39:1 405:1 430:1 obj 1\\
0.6249999999999998: 44:1 412:1 421:1 obj 1\\
1: 67:1 319:1 obj 1\\
0.2272937991395936: 73:1 399:1 401:1 obj 1\\
2: 136:1 357:1 389:1 obj 1\\
0.2792797804480056: 141:1 342:1 400:1 obj 1\\
0.3750000000000002: 142:1 328:1 412:1 obj 1\\
0.1536771250556292: 164:1 328:1 390:1 obj 1\\
0.1625686099985164: 176:1 315:1 393:1 obj 1\\
1: 181:1 298:1 404:1 obj 1\\
0.4014055778074467: 183:1 315:1 387:1 obj 1\\
0.7481920338228749: 185:1 298:1 401:1 obj 1\\
0.4052440290758047: 200:1 293:1 392:1 obj 1\\
1: 216:1 274:1 394:1 obj 1\\
1: 229:1 256:1 396:1 obj 1\\
0.5253671562082773: 233:1 257:1 391:1 obj 1\\
0.1250000000000002: 17:1 426:1 431:1 obj 1\\
0.2698876279483757: 39:1 404:1 431:1 obj 1\\
0.2850374573505416: 42:1 406:1 427:1 obj 1\\
1: 99:1 386:1 389:1 obj 1\\
0.6527128764278296: 153:1 326:1 403:1 obj 1\\
0.8084019433318494: 162:1 314:1 406:1 obj 1\\
0.7207202195519944: 168:1 315:1 400:1 obj 1\\
0.1518691588785048: 173:1 213:1 obj 1\\
0.5985944221925532: 183:1 297:1 403:1 obj 1\\
1: 201:1 289:1 395:1 obj 1\\
1: 229:1 254:1 398:1 obj 1\\
2.474632843791723: 238:1 257:1 387:1 obj 1\\
0.5899625426494584: 42:1 415:1 420:1 obj 1\\
0.7850374573505416: 44:1 414:1 419:1 obj 1\\
0.7582331998219848: 73:1 395:1 406:1 obj 1\\
0.5591807595312266: 98:1 387:1 388:1 obj 1\\
0.09572021955199461: 134:1 342:1 406:1 obj 1\\
1: 139:1 361:1 384:1 obj 1\\
0.6249999999999998: 141:1 328:1 413:1 obj 1\\
1.975485832962468: 161:1 315:1 406:1 obj 1\\
1.846322874944371: 164:1 321:1 398:1 obj 1\\
0.1235628986797206: 165:1 321:1 397:1 obj 1\\
1: 176:1 324:1 385:1 obj 1\\
0.3096536122237054: 177:1 308:1 397:1 obj 1\\
0.564780818869604: 177:1 321:1 387:1 obj 1\\
0.3144377688770212: 185:1 292:1 406:1 obj 1\\
0.3123701973001041: 200:1 287:1 396:1 obj 1\\
1: 216:1 273:1 395:1 obj 1\\
0.2500000000000003: 13:1 428:1 431:1 obj 1\\
0.7149625426494584: 16:1 427:1 429:1 obj 1\\
0.5899625426494586: 44:1 409:1 424:1 obj 1\\
1: 143:1 328:1 411:1 obj 1\\
0.1874721851357363: 153:1 325:1 404:1 obj 1\\
0.280114226375909: 165:1 315:1 402:1 obj 1\\
0.5963228749443704: 165:1 328:1 389:1 obj 1\\
0.02070353063343688: 175:1 314:1 395:1 obj 1\\
0.4408192404687734: 175:1 321:1 388:1 obj 1\\
0.1255655689066906: 177:1 324:1 384:1 obj 1\\
0.2513072986203828: 202:1 279:1 402:1 obj 1\\
0.5947559709241953: 202:1 293:1 390:1 obj 1\\
0.1518691588785048: 216:1 275:1 393:1 obj 1\\
0.4100374573505416: 56:1 405:1 415:1 obj 1\\
0.1892523364485981: 162:1 324:1 397:1 obj 1\\
0.3472871235721704: 168:1 326:1 390:1 obj 1\\
0.3123701973001041: 185:1 289:1 409:1 obj 1\\
0.00227154724818282: 198:1 298:1 389:1 obj 1\\
0.3775311526479749: 199:1 287:1 397:1 obj 1\\
0.1539367304554219: 202:1 291:1 392:1 obj 1\\






File: BPP_1000_750_0.1_0.8_7.txt  Instance No. 1
Wed Feb 25 13:57:11 2015

LP0 Time: 1.81 IPTime: 1.82 The best integer solution (456):

1: 0:1 378:1 obj 1\\
1: 2:1 377:1 obj 1\\
1: 3:1 376:1 obj 1\\
3: 4:1 375:1 obj 1\\
2: 5:1 376:1 obj 1\\
2: 6:1 374:1 obj 1\\
2: 7:1 373:1 obj 1\\
1: 7:1 374:1 obj 1\\
1: 10:1 369:1 obj 1\\
2: 10:1 370:1 obj 1\\
4: 12:1 372:1 obj 1\\
1: 13:1 368:1 obj 1\\
1: 14:1 367:1 obj 1\\
3: 15:1 366:1 obj 1\\
1: 16:1 365:1 obj 1\\
1: 17:1 428:2 obj 1\\
1: 19:1 422:1 433:1 obj 1\\
1: 20:1 364:1 obj 1\\
1: 21:1 363:1 obj 1\\
3: 23:1 362:1 obj 1\\
1: 24:1 361:1 obj 1\\
3: 25:1 360:1 obj 1\\
1: 26:1 359:1 obj 1\\
1: 26:1 361:1 obj 1\\
2: 27:1 357:1 obj 1\\
1: 28:1 355:1 obj 1\\
1: 29:1 354:1 obj 1\\
1: 30:1 356:1 obj 1\\
1: 31:1 353:1 obj 1\\
1: 32:1 352:1 obj 1\\
1: 33:1 351:1 obj 1\\
1: 34:1 350:1 obj 1\\
2: 35:1 349:1 obj 1\\
1: 36:1 354:1 obj 1\\
5: 38:1 347:1 obj 1\\
2: 40:1 346:1 obj 1\\
2: 41:1 345:1 obj 1\\
2: 42:1 344:1 obj 1\\
2: 43:1 343:1 obj 1\\
1: 45:1 342:1 obj 1\\
1: 46:1 341:1 obj 1\\
1: 47:1 340:1 obj 1\\
2: 47:1 341:1 obj 1\\
1: 48:1 339:1 obj 1\\
1: 49:1 338:1 obj 1\\
3: 50:1 336:1 obj 1\\
1: 51:1 335:1 obj 1\\
1: 51:1 336:1 obj 1\\
2: 52:1 334:1 obj 1\\
1: 53:1 332:1 obj 1\\
3: 53:1 333:1 obj 1\\
2: 55:1 330:1 obj 1\\
1: 55:1 331:1 obj 1\\
1: 56:1 329:1 obj 1\\
1: 57:1 328:1 obj 1\\
2: 58:1 328:1 obj 1\\
2: 59:1 327:1 obj 1\\
1: 60:1 327:1 obj 1\\
2: 61:1 326:1 obj 1\\
1: 62:1 322:1 obj 1\\
1: 63:1 323:1 obj 1\\
1: 63:1 324:1 obj 1\\
1: 64:1 321:1 obj 1\\
2: 65:1 320:1 obj 1\\
3: 66:1 318:1 obj 1\\
1: 67:1 317:1 obj 1\\
3: 68:1 314:1 obj 1\\
1: 69:1 313:1 obj 1\\
2: 70:1 312:1 obj 1\\
5: 71:1 311:1 obj 1\\
1: 72:1 310:1 obj 1\\
1: 72:1 313:1 obj 1\\
1: 73:1 309:1 obj 1\\
1: 74:1 308:1 obj 1\\
1: 75:1 307:1 obj 1\\
4: 77:1 306:1 obj 1\\
2: 78:1 305:1 obj 1\\
3: 80:1 303:1 obj 1\\
1: 81:1 302:1 obj 1\\
2: 82:1 301:1 obj 1\\
1: 83:1 300:1 obj 1\\
2: 85:1 299:1 obj 1\\
1: 86:1 296:1 obj 1\\
3: 87:1 295:1 obj 1\\
1: 88:1 294:1 obj 1\\
1: 88:1 297:1 obj 1\\
4: 89:1 293:1 obj 1\\
1: 90:1 292:1 obj 1\\
3: 91:1 290:1 obj 1\\
1: 92:1 288:1 obj 1\\
1: 92:1 289:1 obj 1\\
1: 93:1 287:1 obj 1\\
1: 94:1 285:1 obj 1\\
2: 95:1 284:1 obj 1\\
1: 96:1 283:1 obj 1\\
2: 96:1 284:1 obj 1\\
1: 97:1 282:1 obj 1\\
2: 97:1 285:1 obj 1\\
1: 98:1 286:1 obj 1\\
1: 99:1 281:1 obj 1\\
3: 100:1 280:1 obj 1\\
2: 101:1 279:1 obj 1\\
2: 102:1 278:1 obj 1\\
1: 103:1 277:1 obj 1\\
1: 104:1 278:1 obj 1\\
4: 107:1 275:1 obj 1\\
1: 108:1 272:1 obj 1\\
2: 109:1 271:1 obj 1\\
3: 110:1 269:1 obj 1\\
1: 112:1 270:1 obj 1\\
1: 114:1 267:1 obj 1\\
1: 115:1 266:1 obj 1\\
1: 116:1 265:1 obj 1\\
1: 117:1 264:1 obj 1\\
1: 118:1 263:1 obj 1\\
1: 118:1 266:1 obj 1\\
2: 119:1 261:1 obj 1\\
1: 120:1 260:1 obj 1\\
1: 121:1 262:1 obj 1\\
1: 122:1 259:1 obj 1\\
3: 123:1 258:1 obj 1\\
1: 124:1 257:1 obj 1\\
1: 125:1 256:1 obj 1\\
3: 126:1 255:1 obj 1\\
2: 127:1 254:1 obj 1\\
1: 128:1 253:1 obj 1\\
3: 129:1 254:1 obj 1\\
1: 130:1 251:1 obj 1\\
1: 131:1 250:1 obj 1\\
2: 133:1 248:1 obj 1\\
1: 134:1 247:1 obj 1\\
2: 134:1 249:1 obj 1\\
1: 135:1 246:1 obj 1\\
1: 137:1 245:1 obj 1\\
1: 138:1 245:1 obj 1\\
2: 140:1 243:1 obj 1\\
2: 140:1 244:1 obj 1\\
1: 141:1 242:1 obj 1\\
1: 142:1 241:1 obj 1\\
1: 142:1 342:1 399:1 obj 1\\
1: 143:1 240:1 obj 1\\
1: 144:1 239:1 obj 1\\
1: 145:1 237:1 obj 1\\
1: 146:1 236:1 obj 1\\
2: 147:1 235:1 obj 1\\
1: 148:1 234:1 obj 1\\
2: 149:1 233:1 obj 1\\
1: 150:1 232:1 obj 1\\
2: 151:1 231:1 obj 1\\
1: 152:1 230:1 obj 1\\
2: 153:1 232:1 obj 1\\
1: 154:1 228:1 obj 1\\
3: 155:1 227:1 obj 1\\
2: 156:1 226:1 obj 1\\
1: 157:1 225:1 obj 1\\
2: 158:1 229:1 obj 1\\
1: 159:1 224:1 obj 1\\
2: 160:1 223:1 obj 1\\
1: 160:1 224:1 obj 1\\
2: 163:1 222:1 obj 1\\
1: 164:1 221:1 obj 1\\
1: 165:1 220:1 obj 1\\
1: 166:1 219:1 obj 1\\
4: 167:1 218:1 obj 1\\
1: 168:1 217:1 obj 1\\
2: 169:1 216:1 obj 1\\
2: 170:1 214:1 obj 1\\
1: 171:1 214:1 obj 1\\
2: 171:1 215:1 obj 1\\
2: 172:1 213:1 obj 1\\
1: 173:1 212:1 obj 1\\
1: 174:1 211:1 obj 1\\
1: 175:1 210:1 obj 1\\
1: 175:1 213:1 obj 1\\
2: 175:1 308:1 399:1 obj 1\\
2: 177:1 209:1 obj 1\\
2: 178:1 208:1 obj 1\\
2: 179:1 207:1 obj 1\\
1: 180:1 206:1 obj 1\\
1: 181:1 205:1 obj 1\\
1: 181:1 206:1 obj 1\\
1: 182:1 204:1 obj 1\\
1: 183:1 204:1 obj 1\\
1: 184:1 203:1 obj 1\\
1: 185:1 203:1 obj 1\\
1: 186:1 202:1 obj 1\\
1: 187:1 201:1 obj 1\\
1: 188:1 200:1 obj 1\\
1: 189:1 199:1 obj 1\\
1: 190:1 198:1 obj 1\\
3: 191:1 197:1 obj 1\\
1: 192:1 196:1 obj 1\\
2: 193:1 195:1 obj 1\\
1: 198:1 289:1 396:1 obj 1\\
1: 13:1 370:1 obj 1\\
1: 1:1 381:1 obj 1\\
1: 9:1 372:1 obj 1\\
1: 11:1 369:1 obj 1\\
2: 12:1 371:1 obj 1\\
2: 105:1 278:1 obj 1\\
1: 154:1 229:1 obj 1\\
2: 8:1 382:1 obj 1\\
1: 26:1 360:1 obj 1\\
2: 76:1 308:1 obj 1\\
1: 34:1 352:1 obj 1\\
2: 37:1 349:1 obj 1\\
2: 54:1 336:1 obj 1\\
4: 84:1 300:1 obj 1\\
1: 118:1 264:1 obj 1\\
2: 118:1 267:1 obj 1\\
2: 162:1 316:1 404:1 obj 1\\
1: 173:1 216:1 obj 1\\
2: 22:1 416:1 436:1 obj 1\\
1: 22:1 419:1 433:1 obj 1\\
1: 42:1 345:1 obj 1\\
1: 56:1 331:1 obj 1\\
1: 116:1 266:1 obj 1\\
1: 121:1 361:1 400:1 obj 1\\
1: 153:1 324:1 405:1 obj 1\\
1: 22:1 417:1 435:1 obj 1\\
1: 46:1 342:1 obj 1\\
1: 76:1 307:1 obj 1\\
2: 80:1 304:1 obj 1\\
2: 111:1 272:1 obj 1\\
1: 119:1 262:1 obj 1\\
1: 130:1 252:1 obj 1\\
1: 146:1 238:1 obj 1\\
1: 0:1 380:1 obj 1\\
1: 3:1 379:1 obj 1\\
3: 5:1 378:1 obj 1\\
1: 7:1 381:1 obj 1\\
2: 18:1 426:1 430:1 obj 1\\
1: 19:1 421:1 434:1 obj 1\\
1: 37:1 348:1 obj 1\\
2: 41:1 346:1 obj 1\\
1: 98:1 283:1 obj 1\\
3: 106:1 276:1 obj 1\\
1: 132:1 250:1 obj 1\\
1: 157:1 227:1 obj 1\\
1: 33:1 352:1 obj 1\\
2: 36:1 351:1 obj 1\\
2: 44:1 415:1 418:1 obj 1\\
1: 56:1 407:1 413:1 obj 1\\
1: 79:1 306:1 obj 1\\
1: 83:1 301:1 obj 1\\
1: 113:1 268:1 obj 1\\
1: 139:1 337:1 406:1 obj 1\\
1: 141:1 358:1 384:1 obj 1\\
1: 144:1 328:1 410:1 obj 1\\
1: 200:1 275:1 409:1 obj 1\\
1: 216:1 259:1 408:1 obj 1\\
1: 0:1 381:1 obj 1\\
2: 19:1 423:1 432:1 obj 1\\
1: 23:1 416:1 435:1 obj 1\\
1: 28:1 356:1 obj 1\\
1: 73:1 398:1 402:1 obj 1\\
2: 134:1 358:1 390:1 obj 1\\
1: 161:1 321:1 401:1 obj 1\\
2: 194:1 196:1 obj 1\\
1: 200:1 292:1 393:1 obj 1\\
1: 14:1 428:1 430:1 obj 1\\
1: 18:1 421:1 435:1 obj 1\\
1: 19:1 424:1 431:1 obj 1\\
1: 30:1 354:1 obj 1\\
1: 42:1 402:1 431:1 obj 1\\
1: 54:1 408:1 415:1 obj 1\\
1: 66:1 320:1 obj 1\\
1: 113:1 382:1 383:1 obj 1\\
1: 129:1 253:1 obj 1\\
1: 146:1 237:1 obj 1\\
1: 168:1 316:1 399:1 obj 1\\
1: 174:1 213:1 obj 1\\
1: 175:1 324:1 386:1 obj 1\\
1: 176:1 298:1 409:1 obj 1\\
3: 176:1 325:1 384:1 obj 1\\
1: 185:1 291:1 407:1 obj 1\\
1: 198:1 287:1 398:1 obj 1\\
1: 200:1 279:1 403:1 obj 1\\
1: 200:1 290:1 395:1 obj 1\\
1: 16:1 425:1 433:1 obj 1\\
1: 44:1 412:1 421:1 obj 1\\
1: 67:1 319:1 obj 1\\
2: 136:1 357:1 389:1 obj 1\\
1: 181:1 298:1 404:1 obj 1\\
1: 185:1 298:1 401:1 obj 1\\
1: 216:1 274:1 394:1 obj 1\\
1: 229:1 256:1 396:1 obj 1\\
1: 233:1 257:1 391:1 obj 1\\
1: 99:1 386:1 389:1 obj 1\\
1: 153:1 326:1 403:1 obj 1\\
1: 162:1 314:1 406:1 obj 1\\
1: 168:1 315:1 400:1 obj 1\\
1: 201:1 289:1 395:1 obj 1\\
1: 229:1 254:1 398:1 obj 1\\
2: 238:1 257:1 387:1 obj 1\\
1: 42:1 415:1 420:1 obj 1\\
1: 44:1 414:1 419:1 obj 1\\
1: 73:1 395:1 406:1 obj 1\\
1: 98:1 387:1 388:1 obj 1\\
1: 139:1 361:1 384:1 obj 1\\
1: 141:1 328:1 413:1 obj 1\\
2: 161:1 315:1 406:1 obj 1\\
2: 164:1 321:1 398:1 obj 1\\
1: 176:1 324:1 385:1 obj 1\\
1: 177:1 321:1 387:1 obj 1\\
1: 216:1 273:1 395:1 obj 1\\
1: 16:1 427:1 429:1 obj 1\\
1: 143:1 328:1 411:1 obj 1\\
1: 165:1 328:1 389:1 obj 1\\
1: 202:1 293:1 390:1 obj 1\\
1: 199:1 287:1 397:1 obj 1\\
1: 183:1 297:1 405:1 obj 1\\
1: 39:1 406:1 435:1 obj 1\\
1: 56:1 409:1 417:1 obj 1\\
1: 168:1 238:1 obj 1\\
1: 194:1 315:1 392:1 obj 1\\



The last LP solution 


File: BPP_1000_750_0.1_0.8_7.txt  Instance No. 1
Wed Feb 25 13:57:11 2015

LP solution: lpval=455.9145527369826 lpbnd=456

1: 0:1 378:1 obj 1\\
1: 2:1 377:1 obj 1\\
1: 3:1 376:1 obj 1\\
3: 4:1 375:1 obj 1\\
2: 5:1 376:1 obj 1\\
2: 6:1 374:1 obj 1\\
2: 7:1 373:1 obj 1\\
1: 7:1 374:1 obj 1\\
0.2500000000000004: 8:1 372:1 obj 1\\
0.2500000000000003: 9:1 370:1 obj 1\\
1: 10:1 369:1 obj 1\\
2: 10:1 370:1 obj 1\\
4: 12:1 372:1 obj 1\\
1: 13:1 368:1 obj 1\\
1: 14:1 367:1 obj 1\\
3: 15:1 366:1 obj 1\\
1: 16:1 365:1 obj 1\\
0.8749999999999998: 17:1 428:2 obj 1\\
0.3200749147010824: 18:1 423:1 433:1 obj 1\\
1: 19:1 422:1 433:1 obj 1\\
1: 20:1 364:1 obj 1\\
1: 21:1 363:1 obj 1\\
0.2850374573505416: 22:1 421:1 431:1 obj 1\\
3: 23:1 362:1 obj 1\\
1: 24:1 361:1 obj 1\\
3: 25:1 360:1 obj 1\\
1: 26:1 359:1 obj 1\\
1: 26:1 361:1 obj 1\\
2: 27:1 357:1 obj 1\\
1: 28:1 355:1 obj 1\\
1: 29:1 354:1 obj 1\\
1: 30:1 356:1 obj 1\\
1: 31:1 353:1 obj 1\\
1: 32:1 352:1 obj 1\\
1: 33:1 351:1 obj 1\\
1: 34:1 350:1 obj 1\\
2: 35:1 349:1 obj 1\\
1: 36:1 354:1 obj 1\\
5: 38:1 347:1 obj 1\\
0.2850374573505416: 39:1 406:1 429:1 obj 1\\
2: 40:1 346:1 obj 1\\
2: 41:1 345:1 obj 1\\
2: 42:1 344:1 obj 1\\
2: 43:1 343:1 obj 1\\
1: 45:1 342:1 obj 1\\
1: 46:1 341:1 obj 1\\
1: 47:1 340:1 obj 1\\
2: 47:1 341:1 obj 1\\
1: 48:1 339:1 obj 1\\
1: 49:1 338:1 obj 1\\
3: 50:1 336:1 obj 1\\
1: 51:1 335:1 obj 1\\
1: 51:1 336:1 obj 1\\
2: 52:1 334:1 obj 1\\
1: 53:1 332:1 obj 1\\
3: 53:1 333:1 obj 1\\
2: 55:1 330:1 obj 1\\
1: 55:1 331:1 obj 1\\
1: 56:1 329:1 obj 1\\
1: 57:1 328:1 obj 1\\
2: 58:1 328:1 obj 1\\
2: 59:1 327:1 obj 1\\
1: 60:1 327:1 obj 1\\
2: 61:1 326:1 obj 1\\
1: 62:1 322:1 obj 1\\
1: 63:1 323:1 obj 1\\
1: 63:1 324:1 obj 1\\
1: 64:1 321:1 obj 1\\
2: 65:1 320:1 obj 1\\
3: 66:1 318:1 obj 1\\
1: 67:1 317:1 obj 1\\
3: 68:1 314:1 obj 1\\
1: 69:1 313:1 obj 1\\
1.829105473965287: 70:1 312:1 obj 1\\
4.829105473965287: 71:1 311:1 obj 1\\
1: 72:1 310:1 obj 1\\
1: 72:1 313:1 obj 1\\
1: 73:1 309:1 obj 1\\
1: 74:1 308:1 obj 1\\
1: 75:1 307:1 obj 1\\
4: 77:1 306:1 obj 1\\
2: 78:1 305:1 obj 1\\
3: 80:1 303:1 obj 1\\
1: 81:1 302:1 obj 1\\
2: 82:1 301:1 obj 1\\
1: 83:1 300:1 obj 1\\
2: 85:1 299:1 obj 1\\
1: 86:1 296:1 obj 1\\
3: 87:1 295:1 obj 1\\
1: 88:1 294:1 obj 1\\
1: 88:1 297:1 obj 1\\
4: 89:1 293:1 obj 1\\
1: 90:1 292:1 obj 1\\
3: 91:1 290:1 obj 1\\
1: 92:1 288:1 obj 1\\
1: 92:1 289:1 obj 1\\
1: 93:1 287:1 obj 1\\
1: 94:1 285:1 obj 1\\
2: 95:1 284:1 obj 1\\
1: 96:1 283:1 obj 1\\
2: 96:1 284:1 obj 1\\
1: 97:1 282:1 obj 1\\
2: 97:1 285:1 obj 1\\
1: 98:1 286:1 obj 1\\
1: 99:1 281:1 obj 1\\
3: 100:1 280:1 obj 1\\
2: 101:1 279:1 obj 1\\
2: 102:1 278:1 obj 1\\
1: 103:1 277:1 obj 1\\
1: 104:1 278:1 obj 1\\
4: 107:1 275:1 obj 1\\
1: 108:1 272:1 obj 1\\
2: 109:1 271:1 obj 1\\
3: 110:1 269:1 obj 1\\
1: 112:1 270:1 obj 1\\
1: 114:1 267:1 obj 1\\
1: 115:1 266:1 obj 1\\
1: 116:1 265:1 obj 1\\
1: 117:1 264:1 obj 1\\
1: 118:1 263:1 obj 1\\
1: 118:1 266:1 obj 1\\
2: 119:1 261:1 obj 1\\
1: 120:1 260:1 obj 1\\
1: 121:1 262:1 obj 1\\
1: 122:1 259:1 obj 1\\
3: 123:1 258:1 obj 1\\
1: 124:1 257:1 obj 1\\
1: 125:1 256:1 obj 1\\
3: 126:1 255:1 obj 1\\
2: 127:1 254:1 obj 1\\
1: 128:1 253:1 obj 1\\
3: 129:1 254:1 obj 1\\
1: 130:1 251:1 obj 1\\
1: 131:1 250:1 obj 1\\
2: 133:1 248:1 obj 1\\
1: 134:1 247:1 obj 1\\
2: 134:1 249:1 obj 1\\
1: 135:1 246:1 obj 1\\
1: 137:1 245:1 obj 1\\
1: 138:1 245:1 obj 1\\
2: 140:1 243:1 obj 1\\
2: 140:1 244:1 obj 1\\
1: 141:1 242:1 obj 1\\
1: 142:1 241:1 obj 1\\
0.6249999999999998: 142:1 342:1 399:1 obj 1\\
1: 143:1 240:1 obj 1\\
1: 144:1 239:1 obj 1\\
1: 145:1 237:1 obj 1\\
1: 146:1 236:1 obj 1\\
2: 147:1 235:1 obj 1\\
1: 148:1 234:1 obj 1\\
2: 149:1 233:1 obj 1\\
0.5253671562082776: 150:1 232:1 obj 1\\
2: 151:1 231:1 obj 1\\
1: 152:1 230:1 obj 1\\
2.474632843791722: 153:1 232:1 obj 1\\
1: 154:1 228:1 obj 1\\
3: 155:1 227:1 obj 1\\
2: 156:1 226:1 obj 1\\
1: 157:1 225:1 obj 1\\
2: 158:1 229:1 obj 1\\
1: 159:1 224:1 obj 1\\
2: 160:1 223:1 obj 1\\
1: 160:1 224:1 obj 1\\
0.4597055333036644: 162:1 315:1 405:1 obj 1\\
2: 163:1 222:1 obj 1\\
1: 164:1 221:1 obj 1\\
1: 165:1 220:1 obj 1\\
1: 166:1 219:1 obj 1\\
4: 167:1 218:1 obj 1\\
1: 168:1 217:1 obj 1\\
2: 169:1 216:1 obj 1\\
2: 170:1 214:1 obj 1\\
1: 171:1 214:1 obj 1\\
2: 171:1 215:1 obj 1\\
2: 172:1 213:1 obj 1\\
1: 173:1 212:1 obj 1\\
1: 174:1 211:1 obj 1\\
1: 175:1 210:1 obj 1\\
0.8481308411214952: 175:1 213:1 obj 1\\
1.690346387776295: 175:1 308:1 399:1 obj 1\\
2: 177:1 209:1 obj 1\\
2: 178:1 208:1 obj 1\\
2: 179:1 207:1 obj 1\\
1: 180:1 206:1 obj 1\\
1: 181:1 205:1 obj 1\\
1: 181:1 206:1 obj 1\\
1: 182:1 204:1 obj 1\\
1: 183:1 204:1 obj 1\\
1: 184:1 203:1 obj 1\\
1: 185:1 203:1 obj 1\\
1: 186:1 202:1 obj 1\\
1: 187:1 201:1 obj 1\\
1: 188:1 200:1 obj 1\\
1: 189:1 199:1 obj 1\\
1: 190:1 198:1 obj 1\\
3: 191:1 197:1 obj 1\\
1: 192:1 196:1 obj 1\\
2: 193:1 195:1 obj 1\\
0.5: 194:2 obj 1\\
0.6876298026998959: 198:1 289:1 396:1 obj 1\\
0.2210632695445783: 199:1 291:1 395:1 obj 1\\
0.7499999999999997: 13:1 370:1 obj 1\\
1: 1:1 381:1 obj 1\\
0.7499999999999997: 9:1 372:1 obj 1\\
1: 11:1 369:1 obj 1\\
2: 12:1 371:1 obj 1\\
2: 105:1 278:1 obj 1\\
1: 154:1 229:1 obj 1\\
1.75: 8:1 382:1 obj 1\\
1: 26:1 360:1 obj 1\\
0.1708945260347132: 70:1 314:1 obj 1\\
2: 76:1 308:1 obj 1\\
1: 34:1 352:1 obj 1\\
2: 37:1 349:1 obj 1\\
2: 54:1 336:1 obj 1\\
4: 84:1 300:1 obj 1\\
1: 118:1 264:1 obj 1\\
2: 118:1 267:1 obj 1\\
0.4746328437917224: 150:1 233:1 obj 1\\
1.542640186915888: 162:1 316:1 404:1 obj 1\\
0.8481308411214952: 173:1 216:1 obj 1\\
1.5: 22:1 416:1 436:1 obj 1\\
0.7149625426494584: 22:1 419:1 433:1 obj 1\\
1: 42:1 345:1 obj 1\\
1: 56:1 331:1 obj 1\\
1: 116:1 266:1 obj 1\\
1: 121:1 361:1 400:1 obj 1\\
0.6851820946447114: 153:1 324:1 405:1 obj 1\\
0.4100374573505416: 19:1 420:1 435:1 obj 1\\
1.5: 22:1 417:1 435:1 obj 1\\
1: 46:1 342:1 obj 1\\
1: 76:1 307:1 obj 1\\
2: 80:1 304:1 obj 1\\
2: 111:1 272:1 obj 1\\
1: 119:1 262:1 obj 1\\
1: 130:1 252:1 obj 1\\
1: 146:1 238:1 obj 1\\
1: 0:1 380:1 obj 1\\
1: 3:1 379:1 obj 1\\
3: 5:1 378:1 obj 1\\
1: 7:1 381:1 obj 1\\
1.554925085298917: 18:1 426:1 430:1 obj 1\\
1: 19:1 421:1 434:1 obj 1\\
1: 37:1 348:1 obj 1\\
2: 41:1 346:1 obj 1\\
0.5: 42:1 416:1 417:1 obj 1\\
1: 98:1 283:1 obj 1\\
3: 106:1 276:1 obj 1\\
1: 132:1 250:1 obj 1\\
1: 157:1 227:1 obj 1\\
0.03503745735054076: 18:1 425:1 431:1 obj 1\\
0.5: 19:1 419:1 436:1 obj 1\\
1: 33:1 352:1 obj 1\\
2: 36:1 351:1 obj 1\\
2: 44:1 415:1 418:1 obj 1\\
1.375: 56:1 407:1 413:1 obj 1\\
0.1708945260347132: 71:1 312:1 obj 1\\
1: 79:1 306:1 obj 1\\
1: 83:1 301:1 obj 1\\
1: 113:1 268:1 obj 1\\
1: 139:1 337:1 406:1 obj 1\\
1.095720219551995: 141:1 358:1 384:1 obj 1\\
1: 144:1 328:1 410:1 obj 1\\
0.8481308411214952: 200:1 275:1 409:1 obj 1\\
1: 216:1 259:1 408:1 obj 1\\
1: 0:1 381:1 obj 1\\
0.3200749147010824: 16:1 426:1 432:1 obj 1\\
1.679925085298918: 19:1 423:1 432:1 obj 1\\
1: 23:1 416:1 435:1 obj 1\\
1: 28:1 356:1 obj 1\\
0.2149625426494584: 56:1 406:1 414:1 obj 1\\
0.1708945260347137: 73:1 311:1 obj 1\\
0.8435784750037081: 73:1 398:1 402:1 obj 1\\
1.904279780448005: 134:1 358:1 390:1 obj 1\\
1.024514167037532: 161:1 321:1 401:1 obj 1\\
0.2500000000000003: 176:1 328:1 382:1 obj 1\\
2: 194:1 196:1 obj 1\\
0.4014055778074467: 199:1 297:1 389:1 obj 1\\
0.6855622311229788: 200:1 292:1 393:1 obj 1\\
1: 14:1 428:1 430:1 obj 1\\
1.089962542649459: 18:1 421:1 435:1 obj 1\\
0.4100374573505414: 19:1 424:1 431:1 obj 1\\
1: 30:1 354:1 obj 1\\
0.625: 42:1 402:1 431:1 obj 1\\
1: 54:1 408:1 415:1 obj 1\\
1: 66:1 320:1 obj 1\\
0.4408192404687734: 98:1 384:1 392:1 obj 1\\
1: 113:1 382:1 383:1 obj 1\\
1: 129:1 253:1 obj 1\\
1: 146:1 237:1 obj 1\\
1.457359813084112: 168:1 316:1 399:1 obj 1\\
0.4746328437917227: 168:1 325:1 391:1 obj 1\\
1: 174:1 213:1 obj 1\\
1: 175:1 324:1 386:1 obj 1\\
1.249536418928942: 176:1 298:1 409:1 obj 1\\
2.337894971072541: 176:1 325:1 384:1 obj 1\\
0.6249999999999998: 185:1 291:1 407:1 obj 1\\
1.310098650051921: 198:1 287:1 398:1 obj 1\\
0.7486927013796172: 200:1 279:1 403:1 obj 1\\
1: 200:1 290:1 395:1 obj 1\\
0.2626835781041386: 238:2 406:1 obj 1\\
0.9649625426494592: 16:1 425:1 433:1 obj 1\\
0.4450749147010826: 39:1 405:1 430:1 obj 1\\
0.6249999999999998: 44:1 412:1 421:1 obj 1\\
1: 67:1 319:1 obj 1\\
0.2272937991395936: 73:1 399:1 401:1 obj 1\\
2: 136:1 357:1 389:1 obj 1\\
0.2792797804480056: 141:1 342:1 400:1 obj 1\\
0.3750000000000002: 142:1 328:1 412:1 obj 1\\
0.1536771250556292: 164:1 328:1 390:1 obj 1\\
0.1625686099985164: 176:1 315:1 393:1 obj 1\\
1: 181:1 298:1 404:1 obj 1\\
0.4014055778074467: 183:1 315:1 387:1 obj 1\\
0.7481920338228749: 185:1 298:1 401:1 obj 1\\
0.4052440290758047: 200:1 293:1 392:1 obj 1\\
1: 216:1 274:1 394:1 obj 1\\
1: 229:1 256:1 396:1 obj 1\\
0.5253671562082773: 233:1 257:1 391:1 obj 1\\
0.1250000000000002: 17:1 426:1 431:1 obj 1\\
0.2698876279483757: 39:1 404:1 431:1 obj 1\\
0.2850374573505416: 42:1 406:1 427:1 obj 1\\
1: 99:1 386:1 389:1 obj 1\\
0.6527128764278296: 153:1 326:1 403:1 obj 1\\
0.8084019433318494: 162:1 314:1 406:1 obj 1\\
0.7207202195519944: 168:1 315:1 400:1 obj 1\\
0.1518691588785048: 173:1 213:1 obj 1\\
0.5985944221925532: 183:1 297:1 403:1 obj 1\\
1: 201:1 289:1 395:1 obj 1\\
1: 229:1 254:1 398:1 obj 1\\
2.474632843791723: 238:1 257:1 387:1 obj 1\\
0.5899625426494584: 42:1 415:1 420:1 obj 1\\
0.7850374573505416: 44:1 414:1 419:1 obj 1\\
0.7582331998219848: 73:1 395:1 406:1 obj 1\\
0.5591807595312266: 98:1 387:1 388:1 obj 1\\
0.09572021955199461: 134:1 342:1 406:1 obj 1\\
1: 139:1 361:1 384:1 obj 1\\
0.6249999999999998: 141:1 328:1 413:1 obj 1\\
1.975485832962468: 161:1 315:1 406:1 obj 1\\
1.846322874944371: 164:1 321:1 398:1 obj 1\\
0.1235628986797206: 165:1 321:1 397:1 obj 1\\
1: 176:1 324:1 385:1 obj 1\\
0.3096536122237054: 177:1 308:1 397:1 obj 1\\
0.564780818869604: 177:1 321:1 387:1 obj 1\\
0.3144377688770212: 185:1 292:1 406:1 obj 1\\
0.3123701973001041: 200:1 287:1 396:1 obj 1\\
1: 216:1 273:1 395:1 obj 1\\
0.2500000000000003: 13:1 428:1 431:1 obj 1\\
0.7149625426494584: 16:1 427:1 429:1 obj 1\\
0.5899625426494586: 44:1 409:1 424:1 obj 1\\
1: 143:1 328:1 411:1 obj 1\\
0.1874721851357363: 153:1 325:1 404:1 obj 1\\
0.280114226375909: 165:1 315:1 402:1 obj 1\\
0.5963228749443704: 165:1 328:1 389:1 obj 1\\
0.02070353063343688: 175:1 314:1 395:1 obj 1\\
0.4408192404687734: 175:1 321:1 388:1 obj 1\\
0.1255655689066906: 177:1 324:1 384:1 obj 1\\
0.2513072986203828: 202:1 279:1 402:1 obj 1\\
0.5947559709241953: 202:1 293:1 390:1 obj 1\\
0.1518691588785048: 216:1 275:1 393:1 obj 1\\
0.4100374573505416: 56:1 405:1 415:1 obj 1\\
0.1892523364485981: 162:1 324:1 397:1 obj 1\\
0.3472871235721704: 168:1 326:1 390:1 obj 1\\
0.3123701973001041: 185:1 289:1 409:1 obj 1\\
0.00227154724818282: 198:1 298:1 389:1 obj 1\\
0.3775311526479749: 199:1 287:1 397:1 obj 1\\
0.1539367304554219: 202:1 291:1 392:1 obj 1\\



